(set-logic QF_S)
(declare-fun var0 () String)
(declare-fun var1 () Int)
(declare-fun var2 () String)
(declare-fun var3 () Int)
(declare-fun var4 () Int)
(declare-fun var5 () String)
(declare-fun var6 () Int)
(declare-fun var7 () String)
(assert (> 111 68))
(assert (not (str.suffixof (str.at var0 var1) (str.substr var2 var3 var4))))
(assert (str.contains (str.substr var5 var6 var1) (str.replace var7 var5 "QAp+6L|")))
(assert (< var6 var4))
(check-sat)